p cnf 246 826
-17 5 0 
-17 9 0 
-9 17 -5 0 
-4 -10 -18 0 
-18 10 4 0 
-10 18 4 0 
-4 10 18 0 
-18 -19 -17 0 
-19 18 17 0 
-17 19 18 0 
-18 19 17 0 
-9 -20 -5 0 
5 -20 9 0 
20 -9 5 0 
20 9 -5 0 
-21 6 0 
-21 13 0 
-6 -13 21 0 
-22 -14 -7 0 
-22 14 7 0 
7 22 -14 0 
14 22 -7 0 
-21 -22 -23 0 
-23 22 21 0 
-21 22 23 0 
-22 23 21 0 
-6 -24 -13 0 
13 -24 6 0 
24 -13 6 0 
-6 24 13 0 
-25 15 0 
-15 25 0 
-26 -16 -11 0 
-26 16 11 0 
11 26 -16 0 
16 26 -11 0 
-26 -27 -25 0 
-27 26 25 0 
-25 27 26 0 
-26 27 25 0 
-15 -28 0 
28 15 0 
5 -29 0 
7 -29 0 
29 -7 -5 0 
-30 29 0 
-30 4 0 
-4 30 -29 0 
31 -29 0 
-4 31 0 
29 4 -31 0 
31 -32 0 
8 -32 0 
32 -8 -31 0 
-30 33 0 
33 -32 0 
32 -33 30 0 
-3 -34 -5 0 
5 -34 3 0 
5 34 -3 0 
34 3 -5 0 
33 -35 0 
34 -35 0 
35 -34 -33 0 
36 -33 0 
36 -34 0 
34 -36 33 0 
-37 36 0 
-37 9 0 
-9 37 -36 0 
38 -35 0 
-37 38 0 
35 37 -38 0 
-4 -39 -5 0 
5 -39 4 0 
39 4 -5 0 
-4 39 5 0 
39 -40 -3 0 
-40 3 4 0 
39 -40 4 0 
-4 -39 40 0 
-4 3 40 0 
-3 40 -39 0 
-41 -2 -40 0 
-41 2 40 0 
-2 41 40 0 
-40 41 2 0 
-10 -41 -42 0 
-42 10 41 0 
-10 42 41 0 
-41 42 10 0 
-42 -43 -38 0 
38 -43 42 0 
43 42 -38 0 
-42 43 38 0 
-9 -44 -34 0 
34 -44 9 0 
44 -9 34 0 
44 9 -34 0 
-45 -44 -33 0 
-45 44 33 0 
44 45 -33 0 
33 45 -44 0 
-4 -8 -46 0 
8 -46 4 0 
46 -8 4 0 
-4 8 46 0 
-47 -46 -29 0 
29 -47 46 0 
46 47 -29 0 
29 47 -46 0 
-48 -7 -5 0 
-48 7 5 0 
5 -7 48 0 
7 -5 48 0 
-49 6 0 
-49 11 0 
-6 -11 49 0 
-50 49 0 
-50 48 0 
-48 -49 50 0 
-49 51 0 
-48 51 0 
-51 49 48 0 
-52 51 0 
-52 12 0 
-51 -12 52 0 
-50 53 0 
-52 53 0 
-53 50 52 0 
-6 -47 -54 0 
-54 47 6 0 
-47 54 6 0 
-6 54 47 0 
-55 53 0 
-55 54 0 
-53 -54 55 0 
-53 56 0 
-54 56 0 
-56 54 53 0 
-57 56 0 
-57 13 0 
-56 -13 57 0 
-55 58 0 
-57 58 0 
-58 57 55 0 
-48 -59 -6 0 
-59 6 48 0 
-6 59 48 0 
-48 59 6 0 
-60 -47 59 0 
-60 47 48 0 
-60 59 48 0 
-48 -59 60 0 
-48 60 47 0 
-59 -47 60 0 
-60 -61 -45 0 
-61 45 60 0 
-45 61 60 0 
-60 61 45 0 
-61 -62 -14 0 
14 -62 61 0 
62 -14 61 0 
62 14 -61 0 
-58 -63 -62 0 
62 -63 58 0 
62 63 -58 0 
63 -62 58 0 
-54 -64 -13 0 
13 -64 54 0 
64 -13 54 0 
64 13 -54 0 
-53 -64 -65 0 
64 -65 53 0 
-53 65 64 0 
65 -64 53 0 
-48 -66 -12 0 
-66 48 12 0 
-12 48 66 0 
-48 66 12 0 
-49 -66 -67 0 
-67 49 66 0 
-49 67 66 0 
-66 49 67 0 
-6 -11 0 
11 6 0 
-67 -68 0 
68 67 0 
68 -69 0 
69 -68 0 
-70 15 0 
-15 70 0 
71 -69 0 
71 -70 0 
69 -71 70 0 
-67 -72 0 
72 67 0 
-73 -65 -72 0 
72 -73 65 0 
72 -65 73 0 
65 73 -72 0 
-73 -16 -74 0 
16 -74 73 0 
74 -16 73 0 
16 74 -73 0 
-75 -74 -71 0 
71 -75 74 0 
74 75 -71 0 
71 -74 75 0 
-15 -68 0 
68 15 0 
5 -76 0 
8 -76 0 
76 -8 -5 0 
-77 76 0 
-77 4 0 
-4 -76 77 0 
78 -76 0 
-4 78 0 
76 -78 4 0 
-79 78 0 
-79 9 0 
-9 79 -78 0 
-77 80 0 
-79 80 0 
-80 79 77 0 
-10 -81 -3 0 
-81 10 3 0 
-10 81 3 0 
-3 81 10 0 
-80 -82 -81 0 
-82 81 80 0 
-80 82 81 0 
-81 82 80 0 
-4 -9 -83 0 
-83 9 4 0 
-9 83 4 0 
-4 9 83 0 
-83 -84 -76 0 
76 -84 83 0 
84 83 -76 0 
84 -83 76 0 
-85 -8 -5 0 
5 -85 8 0 
5 85 -8 0 
8 85 -5 0 
-86 6 0 
-86 12 0 
-12 -6 86 0 
-87 86 0 
-87 7 0 
-86 -7 87 0 
-86 88 0 
88 -7 0 
7 -88 86 0 
88 -89 0 
13 -89 0 
89 -13 -88 0 
-87 90 0 
90 -89 0 
89 -90 87 0 
-85 -14 -91 0 
14 -91 85 0 
91 -14 85 0 
14 91 -85 0 
-92 -91 -90 0 
-92 91 90 0 
91 92 -90 0 
90 -91 92 0 
-93 -13 -7 0 
7 -93 13 0 
7 93 -13 0 
13 93 -7 0 
-86 -94 -93 0 
-94 93 86 0 
-86 94 93 0 
-93 94 86 0 
-12 -95 -6 0 
-95 6 12 0 
-12 95 6 0 
-6 95 12 0 
11 -96 0 
96 -11 0 
-97 15 0 
-15 97 0 
98 -96 0 
-97 98 0 
96 97 -98 0 
-95 -99 -16 0 
16 -99 95 0 
99 -16 95 0 
99 16 -95 0 
-100 -99 -98 0 
-100 99 98 0 
99 100 -98 0 
98 100 -99 0 
-15 -101 -11 0 
11 -101 15 0 
-15 101 11 0 
101 15 -11 0 
-102 -101 0 
101 102 0 
-103 5 0 
-103 6 0 
-6 -5 103 0 
-104 103 0 
-104 4 0 
-4 -103 104 0 
-103 105 0 
-4 105 0 
-105 4 103 0 
-106 105 0 
-106 7 0 
-105 106 -7 0 
-104 107 0 
-106 107 0 
-107 106 104 0 
-108 107 0 
-108 3 0 
-107 -3 108 0 
-107 109 0 
-3 109 0 
-109 3 107 0 
-110 109 0 
-110 8 0 
-109 110 -8 0 
-108 111 0 
-110 111 0 
-111 110 108 0 
-112 111 0 
-112 2 0 
-111 -2 112 0 
-111 113 0 
-2 113 0 
-113 2 111 0 
-114 113 0 
-114 9 0 
-113 114 -9 0 
-112 115 0 
-114 115 0 
-115 114 112 0 
-10 -1 -116 0 
-116 1 10 0 
-10 1 116 0 
-1 116 10 0 
-115 -116 -117 0 
-117 116 115 0 
-115 117 116 0 
-116 117 115 0 
-2 -9 -118 0 
-118 9 2 0 
-9 118 2 0 
-2 9 118 0 
-111 -118 -119 0 
-119 118 111 0 
-111 118 119 0 
-118 119 111 0 
-3 -8 -120 0 
8 3 -120 0 
120 3 -8 0 
120 -3 8 0 
-107 -120 -121 0 
120 107 -121 0 
-107 120 121 0 
121 -120 107 0 
-4 -122 -7 0 
7 4 -122 0 
122 4 -7 0 
-4 122 7 0 
-103 -122 -123 0 
122 -123 103 0 
-103 122 123 0 
123 -122 103 0 
-6 -5 0 
5 6 0 
123 -124 0 
124 -123 0 
11 -125 0 
125 -11 0 
126 -124 0 
126 -125 0 
124 -126 125 0 
126 -127 0 
121 -127 0 
127 -121 -126 0 
128 -126 0 
128 -121 0 
121 126 -128 0 
-129 128 0 
-129 12 0 
-12 129 -128 0 
130 -127 0 
-129 130 0 
127 -130 129 0 
130 -131 0 
-131 119 0 
-119 131 -130 0 
132 -130 0 
132 -119 0 
130 119 -132 0 
132 -133 0 
13 -133 0 
133 -13 -132 0 
134 -131 0 
134 -133 0 
133 -134 131 0 
-117 -14 -135 0 
14 117 -135 0 
135 117 -14 0 
135 -117 14 0 
-136 -135 -134 0 
135 -136 134 0 
135 136 -134 0 
134 -135 136 0 
-119 -13 -137 0 
13 119 -137 0 
137 119 -13 0 
137 -119 13 0 
-138 -137 -130 0 
-138 137 130 0 
137 -130 138 0 
130 -137 138 0 
-12 -121 -139 0 
121 -139 12 0 
121 139 -12 0 
139 -121 12 0 
139 -126 0 
126 -139 0 
123 -11 0 
11 -123 0 
-140 138 0 
-138 140 0 
-141 15 0 
-15 141 0 
-140 142 0 
-141 142 0 
-142 140 141 0 
-136 -16 -143 0 
16 136 -143 0 
143 136 -16 0 
143 -136 16 0 
-142 -143 0 
143 142 0 
-15 138 0 
-138 15 0 
-3 -144 -5 0 
5 3 -144 0 
5 144 -3 0 
144 3 -5 0 
-145 107 0 
-145 144 0 
-107 -144 145 0 
-107 146 0 
146 -144 0 
144 -146 107 0 
146 -147 0 
8 -147 0 
147 -146 -8 0 
-145 148 0 
148 -147 0 
147 -148 145 0 
-4 -149 -5 0 
5 -149 4 0 
149 4 -5 0 
-4 149 5 0 
149 -150 -3 0 
-150 3 4 0 
149 -150 4 0 
-4 -149 150 0 
-4 3 150 0 
-3 150 -149 0 
-151 -2 -150 0 
-151 2 150 0 
-2 151 150 0 
-150 151 2 0 
-152 148 0 
-152 151 0 
-151 152 -148 0 
153 -148 0 
-151 153 0 
148 151 -153 0 
153 -154 0 
-154 9 0 
-9 154 -153 0 
-152 155 0 
-154 155 0 
-155 154 152 0 
-156 5 0 
-156 4 0 
-4 156 -5 0 
-157 3 0 
-156 -157 0 
-3 157 156 0 
-158 -157 -150 0 
-158 157 150 0 
-150 157 158 0 
-157 150 158 0 
-159 -2 158 0 
-159 157 2 0 
-159 157 158 0 
-158 -157 159 0 
-157 2 159 0 
-158 -2 159 0 
-159 -1 -160 0 
-160 1 159 0 
-1 160 159 0 
-159 160 1 0 
-10 -160 -161 0 
-161 160 10 0 
-10 160 161 0 
-160 161 10 0 
-162 -161 -155 0 
-162 161 155 0 
-155 161 162 0 
-161 162 155 0 
-151 -9 -163 0 
-163 9 151 0 
-9 163 151 0 
-151 9 163 0 
-163 -164 -148 0 
148 -164 163 0 
164 163 -148 0 
-163 164 148 0 
-165 -144 -8 0 
-165 144 8 0 
144 -8 165 0 
8 -144 165 0 
-107 -165 -166 0 
-166 165 107 0 
-107 165 166 0 
-165 107 166 0 
167 -123 0 
167 -11 0 
123 -167 11 0 
167 -168 0 
-166 -168 0 
168 166 -167 0 
169 -167 0 
169 166 0 
-166 167 -169 0 
169 -170 0 
-170 12 0 
-12 170 -169 0 
171 -168 0 
171 -170 0 
168 -171 170 0 
-166 -172 -123 0 
123 -172 166 0 
-166 172 123 0 
172 166 -123 0 
-173 -164 -172 0 
172 164 -173 0 
172 -164 173 0 
164 173 -172 0 
171 -174 0 
-174 173 0 
-173 174 -171 0 
175 -171 0 
175 -173 0 
171 173 -175 0 
175 -176 0 
13 -176 0 
176 -13 -175 0 
177 -174 0 
177 -176 0 
176 -177 174 0 
-178 166 0 
-178 -123 0 
-166 123 178 0 
-178 -179 -172 0 
172 -179 178 0 
179 -172 178 0 
-178 172 179 0 
179 -180 -164 0 
164 -180 178 0 
179 -180 178 0 
-178 -179 180 0 
-178 164 180 0 
180 -164 -179 0 
-162 -181 -180 0 
180 162 -181 0 
-162 181 180 0 
181 162 -180 0 
-182 -181 -14 0 
-182 14 181 0 
181 -14 182 0 
14 -181 182 0 
-182 -183 -177 0 
177 182 -183 0 
183 182 -177 0 
-182 183 177 0 
-173 -13 -184 0 
13 173 -184 0 
184 173 -13 0 
184 -173 13 0 
-185 -184 -171 0 
-185 171 184 0 
184 -171 185 0 
171 -184 185 0 
-12 166 -186 0 
-166 -186 12 0 
-166 -12 186 0 
186 166 12 0 
186 -167 0 
167 -186 0 
187 185 0 
-15 187 0 
-185 -187 15 0 
-188 185 0 
-185 188 0 
-188 -183 -189 0 
183 -189 188 0 
189 -183 188 0 
-188 183 189 0 
-190 -189 -16 0 
-190 16 189 0 
189 -16 190 0 
16 -189 190 0 
-190 -187 0 
187 190 0 
-15 185 0 
-185 15 0 
-4 -191 -5 0 
5 -191 4 0 
-4 191 5 0 
191 4 -5 0 
-192 103 0 
191 -192 0 
-103 -191 192 0 
-103 193 0 
193 -191 0 
191 -193 103 0 
193 -194 0 
7 -194 0 
194 -193 -7 0 
-192 195 0 
195 -194 0 
194 -195 192 0 
-4 196 0 
196 -5 0 
5 4 -196 0 
-3 -197 -196 0 
196 3 -197 0 
196 -3 197 0 
197 3 -196 0 
195 -198 0 
197 -198 0 
198 -197 -195 0 
199 -195 0 
199 -197 0 
195 197 -199 0 
199 -200 0 
8 -200 0 
200 -8 -199 0 
201 -198 0 
201 -200 0 
198 -201 200 0 
-202 4 0 
-202 -5 0 
-4 5 202 0 
-203 202 -196 0 
196 -202 -203 0 
-202 -196 203 0 
196 202 203 0 
-204 -3 203 0 
-204 3 202 0 
-204 203 202 0 
-202 -203 204 0 
-202 3 204 0 
-203 -3 204 0 
-204 -2 -205 0 
-205 2 204 0 
-2 205 204 0 
-204 2 205 0 
-206 201 0 
-206 205 0 
-205 206 -201 0 
207 -201 0 
207 -205 0 
201 205 -207 0 
-208 207 0 
-208 9 0 
-9 208 -207 0 
-206 209 0 
-208 209 0 
-209 208 206 0 
-4 -210 0 
5 -210 0 
210 4 -5 0 
211 -196 0 
-202 211 0 
196 202 -211 0 
210 -212 -211 0 
211 -210 -212 0 
212 -210 -211 0 
211 212 210 0 
212 -3 -213 0 
210 3 -213 0 
212 -213 210 0 
213 -212 -210 0 
213 3 -210 0 
213 -3 -212 0 
-204 213 -214 0 
-214 -213 204 0 
-204 -213 214 0 
213 214 204 0 
-2 -215 214 0 
213 2 -215 0 
213 214 -215 0 
-214 -213 215 0 
215 2 -213 0 
-214 -2 215 0 
-1 -216 -215 0 
215 -216 1 0 
-1 215 216 0 
216 1 -215 0 
-10 -216 -217 0 
216 -217 10 0 
-10 216 217 0 
217 -216 10 0 
-209 -217 -218 0 
217 -218 209 0 
-209 217 218 0 
218 -217 209 0 
-9 -219 -205 0 
-219 9 205 0 
-9 219 205 0 
-205 9 219 0 
-219 -220 -201 0 
201 -220 219 0 
220 219 -201 0 
-219 220 201 0 
-221 -197 -8 0 
-221 197 8 0 
197 -8 221 0 
8 -197 221 0 
-221 -195 -222 0 
195 221 -222 0 
222 221 -195 0 
-221 222 195 0 
-223 -191 -7 0 
191 -223 7 0 
191 223 -7 0 
7 -191 223 0 
-103 -223 -224 0 
-224 223 103 0 
-103 223 224 0 
-223 224 103 0 
225 224 0 
225 -11 0 
-224 -225 11 0 
-226 225 0 
-226 -222 0 
222 226 -225 0 
227 -225 0 
222 227 0 
225 -222 -227 0 
227 -228 0 
-228 12 0 
-12 -227 228 0 
-226 229 0 
-228 229 0 
-229 226 228 0 
-230 229 0 
-230 220 0 
-229 -220 230 0 
-229 231 0 
231 -220 0 
220 -231 229 0 
231 -232 0 
13 -232 0 
232 -231 -13 0 
-230 233 0 
233 -232 0 
232 -233 230 0 
-234 -220 224 0 
-224 -234 220 0 
-224 234 -220 0 
220 234 224 0 
-234 -218 -235 0 
218 -235 234 0 
235 -218 234 0 
218 235 -234 0 
-236 -235 -14 0 
14 -236 235 0 
235 -14 236 0 
14 -235 236 0 
-236 -237 -233 0 
233 236 -237 0 
237 236 -233 0 
-236 237 233 0 
-238 -220 -13 0 
-238 220 13 0 
220 -13 238 0 
13 -220 238 0 
-229 -238 -239 0 
-239 238 229 0 
-229 238 239 0 
-238 229 239 0 
-12 222 -240 0 
-240 -222 12 0 
-12 -222 240 0 
222 240 12 0 
-240 -225 0 
225 240 0 
-224 -11 0 
11 224 0 
-239 -241 0 
241 239 0 
241 -242 0 
242 -241 0 
-243 15 0 
-15 243 0 
244 -242 0 
-243 244 0 
242 -244 243 0 
237 -245 0 
245 -237 0 
-246 -245 -16 0 
16 245 -246 0 
245 -16 246 0 
16 -245 246 0 
-246 -244 0 
244 246 0 
-15 -241 0 
241 15 0 
